(set-logic QF_NRA)
(set-info :source |Benchmarks generated from hycomp (https://es-static.fbk.eu/tools/hycomp/). BMC instances of non-linear hybrid automata taken from: Alessandro Cimatti, Sergio Mover, Stefano Tonetta, A quantifier-free SMT encoding of non-linear hybrid automata, FMCAD 2012 and Alessandro Cimatti, Sergio Mover, Stefano Tonetta, Quantier-free encoding of invariants for Hybrid Systems, Formal Methods in System Design. This instance solves a BMC problem of depth 1 and uses the quantifier free encoding with lemmas encoding. Contacts: Sergio Mover (mover@fbk.eu), Stefano Tonetta (tonettas@fbk.eu), Alessandro Cimatti (cimatti@fbk.eu).|)
(set-info :smt-lib-version 2.0)
(set-info :category "industrial")
(set-info :status unsat)
;; MathSAT API call trace
;; generated on Mon Mar 19 10:38:50 2012
(declare-fun b.counter.3__AT1 () Bool)
(declare-fun b.delta__AT1 () Real)
(declare-fun b.EVENT.0__AT1 () Bool)
(declare-fun b.x__AT1 () Real)
(declare-fun b.EVENT.1__AT1 () Bool)
(declare-fun b.event_is_timed__AT0 () Bool)
(declare-fun b.y__AT0 () Real)
(declare-fun b.counter.0__AT0 () Bool)
(declare-fun b.counter.1__AT0 () Bool)
(declare-fun b.EVENT.0__AT0 () Bool)
(declare-fun b.bool_atom__AT0 () Bool)
(declare-fun b.counter.2__AT0 () Bool)
(declare-fun b.speed_y__AT1 () Real)
(declare-fun b.event_is_timed__AT1 () Bool)
(declare-fun b.x__AT0 () Real)
(declare-fun b.time__AT1 () Real)
(declare-fun b.bool_atom__AT1 () Bool)
(declare-fun b.g__AT0 () Real)
(declare-fun b.EVENT.1__AT0 () Bool)
(declare-fun b.time__AT0 () Real)
(declare-fun b.delta__AT0 () Real)
(declare-fun b.counter.3__AT0 () Bool)
(declare-fun b.speed_y__AT0 () Real)
(declare-fun b.y__AT1 () Real)
(declare-fun b.counter.0__AT1 () Bool)
(declare-fun b.counter.1__AT1 () Bool)
(declare-fun b.counter.2__AT1 () Bool)
(assert (let ((.def_76 (* (- 1.0) b.g__AT0)))
(let ((.def_79 (* (/ 1 2) .def_76)))
(let ((.def_91 (* 2.0 .def_79)))
(let ((.def_135 (* (- 1.0) .def_91)))
(let ((.def_368 (* .def_135 b.delta__AT1)))
(let ((.def_371 (<= .def_368 b.speed_y__AT1)))
(let ((.def_378 (not .def_371)))
(let ((.def_331 (<= 0.0 b.speed_y__AT1)))
(let ((.def_379 (or .def_331 .def_378)))
(let ((.def_369 (<= b.speed_y__AT1 .def_368)))
(let ((.def_345 (<= b.speed_y__AT1 0.0 )))
(let ((.def_346 (not .def_345)))
(let ((.def_377 (or .def_346 .def_369)))
(let ((.def_380 (and .def_377 .def_379)))
(let ((.def_126 (<= b.g__AT0 0.0 )))
(let ((.def_381 (or .def_126 .def_380)))
(let ((.def_373 (not .def_369)))
(let ((.def_374 (or .def_345 .def_373)))
(let ((.def_332 (not .def_331)))
(let ((.def_372 (or .def_332 .def_371)))
(let ((.def_375 (and .def_372 .def_374)))
(let ((.def_131 (<= 0.0 b.g__AT0)))
(let ((.def_376 (or .def_131 .def_375)))
(let ((.def_382 (and .def_376 .def_381)))
(let ((.def_370 (and .def_345 .def_369)))
(let ((.def_383 (and .def_370 .def_382)))
(let ((.def_327 (* .def_91 b.delta__AT1)))
(let ((.def_328 (+ b.speed_y__AT1 .def_327)))
(let ((.def_343 (<= .def_328 0.0 )))
(let ((.def_344 (not .def_343)))
(let ((.def_363 (or .def_344 .def_345)))
(let ((.def_329 (<= 0.0 .def_328)))
(let ((.def_362 (or .def_329 .def_332)))
(let ((.def_364 (and .def_362 .def_363)))
(let ((.def_365 (or .def_131 .def_364)))
(let ((.def_330 (not .def_329)))
(let ((.def_359 (or .def_330 .def_331)))
(let ((.def_358 (or .def_343 .def_346)))
(let ((.def_360 (and .def_358 .def_359)))
(let ((.def_361 (or .def_126 .def_360)))
(let ((.def_366 (and .def_361 .def_365)))
(let ((.def_357 (and .def_329 .def_331)))
(let ((.def_367 (and .def_357 .def_366)))
(let ((.def_384 (or .def_367 .def_383)))
(let ((.def_318 (* b.speed_y__AT1 b.delta__AT1)))
(let ((.def_316 (* b.delta__AT1 b.delta__AT1)))
(let ((.def_317 (* .def_79 .def_316)))
(let ((.def_319 (+ .def_317 .def_318)))
(let ((.def_297 (* (- 1.0) b.x__AT1)))
(let ((.def_298 (* b.x__AT1 .def_297)))
(let ((.def_320 (* (- 1.0) .def_298)))
(let ((.def_323 (+ .def_320 .def_319)))
(let ((.def_324 (+ b.y__AT1 .def_323)))
(let ((.def_337 (<= .def_324 0.0 )))
(let ((.def_351 (not .def_337)))
(let ((.def_335 (<= b.y__AT1 .def_298)))
(let ((.def_352 (or .def_335 .def_351)))
(let ((.def_299 (<= .def_298 b.y__AT1)))
(let ((.def_349 (not .def_299)))
(let ((.def_325 (<= 0.0 .def_324)))
(let ((.def_350 (or .def_325 .def_349)))
(let ((.def_353 (and .def_350 .def_352)))
(let ((.def_347 (or .def_344 .def_346)))
(let ((.def_348 (not .def_347)))
(let ((.def_354 (or .def_348 .def_353)))
(let ((.def_339 (not .def_325)))
(let ((.def_340 (or .def_299 .def_339)))
(let ((.def_336 (not .def_335)))
(let ((.def_338 (or .def_336 .def_337)))
(let ((.def_341 (and .def_338 .def_340)))
(let ((.def_333 (or .def_330 .def_332)))
(let ((.def_334 (not .def_333)))
(let ((.def_342 (or .def_334 .def_341)))
(let ((.def_355 (and .def_342 .def_354)))
(let ((.def_326 (and .def_299 .def_325)))
(let ((.def_356 (and .def_326 .def_355)))
(let ((.def_385 (and .def_356 .def_384)))
(let ((.def_68 (<= b.g__AT0 10.0 )))
(let ((.def_67 (<= 8.0 b.g__AT0)))
(let ((.def_69 (and .def_67 .def_68)))
(let ((.def_386 (and .def_69 .def_385)))
(let ((.def_38 (not b.counter.0__AT0)))
(let ((.def_308 (or b.counter.1__AT0 .def_38)))
(let ((.def_309 (or b.counter.2__AT0 .def_308)))
(let ((.def_41 (not b.counter.2__AT0)))
(let ((.def_36 (not b.counter.1__AT0)))
(let ((.def_39 (and .def_36 .def_38)))
(let ((.def_307 (or .def_39 .def_41)))
(let ((.def_310 (and .def_307 .def_309)))
(let ((.def_311 (or b.counter.3__AT0 .def_310)))
(let ((.def_304 (or .def_39 b.counter.2__AT0)))
(let ((.def_303 (or .def_36 .def_41)))
(let ((.def_305 (and .def_303 .def_304)))
(let ((.def_44 (not b.counter.3__AT0)))
(let ((.def_306 (or .def_44 .def_305)))
(let ((.def_312 (and .def_306 .def_311)))
(let ((.def_300 (and .def_69 .def_299)))
(let ((.def_294 (not b.EVENT.0__AT1)))
(let ((.def_292 (not b.EVENT.1__AT1)))
(let ((.def_295 (or .def_292 .def_294)))
(let ((.def_9 (not b.counter.0__AT1)))
(let ((.def_6 (not b.counter.1__AT1)))
(let ((.def_285 (or .def_6 .def_9)))
(let ((.def_289 (or b.counter.3__AT1 .def_285)))
(let ((.def_286 (or b.counter.2__AT1 .def_285)))
(let ((.def_4 (not b.counter.2__AT1)))
(let ((.def_284 (or .def_4 .def_9)))
(let ((.def_287 (and .def_284 .def_286)))
(let ((.def_14 (not b.counter.3__AT1)))
(let ((.def_288 (or .def_14 .def_287)))
(let ((.def_290 (and .def_288 .def_289)))
(let ((.def_296 (and .def_290 .def_295)))
(let ((.def_301 (and .def_296 .def_300)))
(let ((.def_279 (<= 0.0 b.delta__AT0)))
(let ((.def_57 (not b.EVENT.0__AT0)))
(let ((.def_55 (not b.EVENT.1__AT0)))
(let ((.def_156 (and .def_55 .def_57)))
(let ((.def_158 (not .def_156)))
(let ((.def_280 (or .def_158 .def_279)))
(let ((.def_281 (or b.EVENT.1__AT0 .def_280)))
(let ((.def_194 (= b.bool_atom__AT0 b.bool_atom__AT1)))
(let ((.def_189 (= b.counter.0__AT1 b.counter.0__AT0)))
(let ((.def_187 (= b.counter.1__AT1 b.counter.1__AT0)))
(let ((.def_185 (= b.counter.2__AT1 b.counter.2__AT0)))
(let ((.def_184 (= b.counter.3__AT1 b.counter.3__AT0)))
(let ((.def_186 (and .def_184 .def_185)))
(let ((.def_188 (and .def_186 .def_187)))
(let ((.def_190 (and .def_188 .def_189)))
(let ((.def_275 (and .def_190 .def_194)))
(let ((.def_276 (or .def_158 .def_275)))
(let ((.def_277 (or b.EVENT.1__AT0 .def_276)))
(let ((.def_264 (* b.delta__AT0 .def_76)))
(let ((.def_265 (* (- 1.0) b.speed_y__AT1)))
(let ((.def_268 (+ .def_265 .def_264)))
(let ((.def_269 (+ b.speed_y__AT0 .def_268)))
(let ((.def_270 (= .def_269 0.0 )))
(let ((.def_256 (* (- 1.0) b.y__AT1)))
(let ((.def_82 (* b.delta__AT0 b.speed_y__AT0)))
(let ((.def_259 (+ .def_82 .def_256)))
(let ((.def_75 (* b.delta__AT0 b.delta__AT0)))
(let ((.def_80 (* .def_75 .def_79)))
(let ((.def_260 (+ .def_80 .def_259)))
(let ((.def_261 (+ b.y__AT0 .def_260)))
(let ((.def_262 (= .def_261 0.0 )))
(let ((.def_176 (= b.x__AT0 b.x__AT1)))
(let ((.def_263 (and .def_176 .def_262)))
(let ((.def_271 (and .def_263 .def_270)))
(let ((.def_272 (or .def_158 .def_271)))
(let ((.def_179 (= b.y__AT0 b.y__AT1)))
(let ((.def_251 (and .def_176 .def_179)))
(let ((.def_182 (= b.speed_y__AT0 b.speed_y__AT1)))
(let ((.def_252 (and .def_182 .def_251)))
(let ((.def_248 (= b.delta__AT0 0.0 )))
(let ((.def_249 (and .def_156 .def_248)))
(let ((.def_250 (not .def_249)))
(let ((.def_253 (or .def_250 .def_252)))
(let ((.def_254 (or b.EVENT.1__AT0 .def_253)))
(let ((.def_241 (and .def_182 .def_190)))
(let ((.def_242 (or b.bool_atom__AT0 .def_241)))
(let ((.def_217 (or .def_9 b.counter.0__AT0)))
(let ((.def_216 (or b.counter.0__AT1 .def_38)))
(let ((.def_218 (and .def_216 .def_217)))
(let ((.def_219 (and .def_6 .def_218)))
(let ((.def_220 (or b.counter.1__AT0 .def_219)))
(let ((.def_215 (or b.counter.1__AT1 .def_36)))
(let ((.def_221 (and .def_215 .def_220)))
(let ((.def_232 (and .def_4 .def_221)))
(let ((.def_233 (or b.counter.2__AT0 .def_232)))
(let ((.def_227 (and .def_6 .def_38)))
(let ((.def_228 (or b.counter.1__AT0 .def_227)))
(let ((.def_229 (and .def_215 .def_228)))
(let ((.def_230 (and b.counter.2__AT1 .def_229)))
(let ((.def_231 (or .def_41 .def_230)))
(let ((.def_234 (and .def_231 .def_233)))
(let ((.def_235 (and b.counter.3__AT1 .def_234)))
(let ((.def_236 (or b.counter.3__AT0 .def_235)))
(let ((.def_222 (and b.counter.2__AT1 .def_221)))
(let ((.def_223 (or b.counter.2__AT0 .def_222)))
(let ((.def_211 (or b.counter.1__AT1 b.counter.1__AT0)))
(let ((.def_209 (and .def_6 b.counter.0__AT1)))
(let ((.def_210 (or .def_36 .def_209)))
(let ((.def_212 (and .def_210 .def_211)))
(let ((.def_213 (and .def_4 .def_212)))
(let ((.def_214 (or .def_41 .def_213)))
(let ((.def_224 (and .def_214 .def_223)))
(let ((.def_225 (and .def_14 .def_224)))
(let ((.def_226 (or .def_44 .def_225)))
(let ((.def_237 (and .def_226 .def_236)))
(let ((.def_206 (* b.speed_y__AT0 b.speed_y__AT0)))
(let ((.def_205 (* b.speed_y__AT1 b.speed_y__AT1)))
(let ((.def_207 (= .def_205 .def_206)))
(let ((.def_203 (+ b.speed_y__AT0 b.speed_y__AT1)))
(let ((.def_204 (= .def_203 0.0 )))
(let ((.def_208 (and .def_204 .def_207)))
(let ((.def_238 (and .def_208 .def_237)))
(let ((.def_202 (not b.bool_atom__AT0)))
(let ((.def_239 (or .def_202 .def_238)))
(let ((.def_62 (* (- 1.0) b.x__AT0)))
(let ((.def_63 (* b.x__AT0 .def_62)))
(let ((.def_199 (= b.y__AT0 .def_63)))
(let ((.def_96 (<= 0.0 b.speed_y__AT0)))
(let ((.def_97 (not .def_96)))
(let ((.def_200 (and .def_97 .def_199)))
(let ((.def_201 (= b.bool_atom__AT0 .def_200)))
(let ((.def_240 (and .def_201 .def_239)))
(let ((.def_243 (and .def_240 .def_242)))
(let ((.def_244 (and .def_176 .def_243)))
(let ((.def_245 (and .def_179 .def_244)))
(let ((.def_246 (or .def_156 .def_245)))
(let ((.def_247 (or b.EVENT.1__AT0 .def_246)))
(let ((.def_255 (and .def_247 .def_254)))
(let ((.def_273 (and .def_255 .def_272)))
(let ((.def_163 (= b.time__AT0 b.time__AT1)))
(let ((.def_177 (and .def_163 .def_176)))
(let ((.def_180 (and .def_177 .def_179)))
(let ((.def_183 (and .def_180 .def_182)))
(let ((.def_191 (and .def_183 .def_190)))
(let ((.def_195 (and .def_191 .def_194)))
(let ((.def_196 (or .def_55 .def_195)))
(let ((.def_166 (* (- 1.0) b.time__AT1)))
(let ((.def_169 (+ b.delta__AT0 .def_166)))
(let ((.def_170 (+ b.time__AT0 .def_169)))
(let ((.def_171 (= .def_170 0.0 )))
(let ((.def_172 (or .def_158 .def_171)))
(let ((.def_173 (or b.EVENT.1__AT0 .def_172)))
(let ((.def_164 (or .def_156 .def_163)))
(let ((.def_165 (or b.EVENT.1__AT0 .def_164)))
(let ((.def_174 (and .def_165 .def_173)))
(let ((.def_197 (and .def_174 .def_196)))
(let ((.def_160 (= .def_158 b.event_is_timed__AT1)))
(let ((.def_157 (= b.event_is_timed__AT0 .def_156)))
(let ((.def_161 (and .def_157 .def_160)))
(let ((.def_198 (and .def_161 .def_197)))
(let ((.def_274 (and .def_198 .def_273)))
(let ((.def_278 (and .def_274 .def_277)))
(let ((.def_282 (and .def_278 .def_281)))
(let ((.def_283 (and .def_55 .def_282)))
(let ((.def_302 (and .def_283 .def_301)))
(let ((.def_313 (and .def_302 .def_312)))
(let ((.def_136 (* b.delta__AT0 .def_135)))
(let ((.def_139 (<= .def_136 b.speed_y__AT0)))
(let ((.def_146 (not .def_139)))
(let ((.def_147 (or .def_96 .def_146)))
(let ((.def_137 (<= b.speed_y__AT0 .def_136)))
(let ((.def_110 (<= b.speed_y__AT0 0.0 )))
(let ((.def_111 (not .def_110)))
(let ((.def_145 (or .def_111 .def_137)))
(let ((.def_148 (and .def_145 .def_147)))
(let ((.def_149 (or .def_126 .def_148)))
(let ((.def_141 (not .def_137)))
(let ((.def_142 (or .def_110 .def_141)))
(let ((.def_140 (or .def_97 .def_139)))
(let ((.def_143 (and .def_140 .def_142)))
(let ((.def_144 (or .def_131 .def_143)))
(let ((.def_150 (and .def_144 .def_149)))
(let ((.def_138 (and .def_110 .def_137)))
(let ((.def_151 (and .def_138 .def_150)))
(let ((.def_92 (* b.delta__AT0 .def_91)))
(let ((.def_93 (+ b.speed_y__AT0 .def_92)))
(let ((.def_108 (<= .def_93 0.0 )))
(let ((.def_109 (not .def_108)))
(let ((.def_129 (or .def_109 .def_110)))
(let ((.def_94 (<= 0.0 .def_93)))
(let ((.def_128 (or .def_94 .def_97)))
(let ((.def_130 (and .def_128 .def_129)))
(let ((.def_132 (or .def_130 .def_131)))
(let ((.def_95 (not .def_94)))
(let ((.def_124 (or .def_95 .def_96)))
(let ((.def_123 (or .def_108 .def_111)))
(let ((.def_125 (and .def_123 .def_124)))
(let ((.def_127 (or .def_125 .def_126)))
(let ((.def_133 (and .def_127 .def_132)))
(let ((.def_122 (and .def_94 .def_96)))
(let ((.def_134 (and .def_122 .def_133)))
(let ((.def_152 (or .def_134 .def_151)))
(let ((.def_83 (+ .def_80 .def_82)))
(let ((.def_84 (* (- 1.0) .def_63)))
(let ((.def_87 (+ .def_84 .def_83)))
(let ((.def_88 (+ b.y__AT0 .def_87)))
(let ((.def_102 (<= .def_88 0.0 )))
(let ((.def_116 (not .def_102)))
(let ((.def_100 (<= b.y__AT0 .def_63)))
(let ((.def_117 (or .def_100 .def_116)))
(let ((.def_64 (<= .def_63 b.y__AT0)))
(let ((.def_114 (not .def_64)))
(let ((.def_89 (<= 0.0 .def_88)))
(let ((.def_115 (or .def_89 .def_114)))
(let ((.def_118 (and .def_115 .def_117)))
(let ((.def_112 (or .def_109 .def_111)))
(let ((.def_113 (not .def_112)))
(let ((.def_119 (or .def_113 .def_118)))
(let ((.def_104 (not .def_89)))
(let ((.def_105 (or .def_64 .def_104)))
(let ((.def_101 (not .def_100)))
(let ((.def_103 (or .def_101 .def_102)))
(let ((.def_106 (and .def_103 .def_105)))
(let ((.def_98 (or .def_95 .def_97)))
(let ((.def_99 (not .def_98)))
(let ((.def_107 (or .def_99 .def_106)))
(let ((.def_120 (and .def_107 .def_119)))
(let ((.def_90 (and .def_64 .def_89)))
(let ((.def_121 (and .def_90 .def_120)))
(let ((.def_153 (and .def_121 .def_152)))
(let ((.def_154 (and .def_69 .def_153)))
(let ((.def_70 (and .def_64 .def_69)))
(let ((.def_58 (or .def_55 .def_57)))
(let ((.def_48 (or .def_36 .def_38)))
(let ((.def_52 (or b.counter.3__AT0 .def_48)))
(let ((.def_49 (or b.counter.2__AT0 .def_48)))
(let ((.def_47 (or .def_38 .def_41)))
(let ((.def_50 (and .def_47 .def_49)))
(let ((.def_51 (or .def_44 .def_50)))
(let ((.def_53 (and .def_51 .def_52)))
(let ((.def_59 (and .def_53 .def_58)))
(let ((.def_71 (and .def_59 .def_70)))
(let ((.def_42 (and .def_39 .def_41)))
(let ((.def_45 (and .def_42 .def_44)))
(let ((.def_33 (= b.y__AT0 10.0 )))
(let ((.def_29 (= b.x__AT0 0.0 )))
(let ((.def_25 (= b.time__AT0 0.0 )))
(let ((.def_27 (and .def_25 b.event_is_timed__AT0)))
(let ((.def_30 (and .def_27 .def_29)))
(let ((.def_34 (and .def_30 .def_33)))
(let ((.def_46 (and .def_34 .def_45)))
(let ((.def_72 (and .def_46 .def_71)))
(let ((.def_17 (or b.counter.1__AT1 .def_9)))
(let ((.def_18 (or b.counter.2__AT1 .def_17)))
(let ((.def_10 (and .def_6 .def_9)))
(let ((.def_16 (or .def_4 .def_10)))
(let ((.def_19 (and .def_16 .def_18)))
(let ((.def_20 (or b.counter.3__AT1 .def_19)))
(let ((.def_11 (or b.counter.2__AT1 .def_10)))
(let ((.def_7 (or .def_4 .def_6)))
(let ((.def_12 (and .def_7 .def_11)))
(let ((.def_15 (or .def_12 .def_14)))
(let ((.def_21 (and .def_15 .def_20)))
(let ((.def_22 (not .def_21)))
(let ((.def_73 (and .def_22 .def_72)))
(let ((.def_155 (and .def_73 .def_154)))
(let ((.def_314 (and .def_155 .def_313)))
(let ((.def_387 (and .def_314 .def_386)))
.def_387))))))))))))))))))))))))))))))))))))))))))))))))))))))))))))))))))))))))))))))))))))))))))))))))))))))))))))))))))))))))))))))))))))))))))))))))))))))))))))))))))))))))))))))))))))))))))))))))))))))))))))))))))))))))))))))))))))))))))))))))))))))))))))))))))))))))))))))))))))))))))))))))))))))))))))))))))))))))))))))))))))))))))))))))))))))
(check-sat)
(exit)
